Minimize
M1 + M2
Subject To
x0,17 + x0,18 + x0,19 + x0,20 + x0,21 + x0,22 + x0,23 + x0,24 + x0,25 = 1
x1,15 + x1,16 + x1,17 + x1,18 + x1,19 + x1,20 + x1,21 + x1,22 + x1,23 + x1,24 + x1,25 = 1
x2,16 + x2,17 + x2,18 + x2,19 + x2,20 + x2,21 + x2,22 + x2,23 + x2,24 = 1
x3,15 + x3,16 + x3,17 + x3,18 + x3,19 + x3,20 + x3,21 + x3,22 + x3,23 = 1
x4,14 + x4,15 + x4,16 + x4,17 + x4,18 + x4,19 + x4,20 + x4,21 + x4,22 = 1
x5,12 + x5,13 + x5,14 + x5,15 + x5,16 + x5,17 + x5,18 + x5,19 + x5,20 = 1
x6,12 + x6,13 + x6,14 + x6,15 + x6,16 + x6,17 + x6,18 + x6,19 + x6,20 = 1
x7,11 + x7,12 + x7,13 + x7,14 + x7,15 + x7,16 + x7,17 + x7,18 + x7,19 = 1
x8,11 + x8,12 + x8,13 + x8,14 + x8,15 + x8,16 + x8,17 + x8,18 + x8,19 = 1
x9,10 + x9,11 + x9,12 + x9,13 + x9,14 + x9,15 + x9,16 + x9,17 + x9,18 = 1
x10,2 + x10,3 + x10,4 + x10,5 + x10,6 + x10,7 + x10,8 + x10,9 + x10,10 + x10,11 + x10,12 + x10,13 + x10,14 + x10,15 + x10,16 + x10,17 + x10,18 = 1
x11,10 + x11,11 + x11,12 + x11,13 + x11,14 + x11,15 + x11,16 + x11,17 + x11,18 = 1
x12,8 + x12,9 + x12,10 + x12,11 + x12,12 + x12,13 + x12,14 + x12,15 + x12,16 = 1
x13,1 + x13,2 + x13,3 + x13,4 + x13,5 + x13,6 + x13,7 + x13,8 + x13,9 + x13,10 + x13,11 + x13,12 + x13,13 + x13,14 + x13,15 + x13,16 + x13,17 = 1
x14,8 + x14,9 + x14,10 + x14,11 + x14,12 + x14,13 + x14,14 + x14,15 + x14,16 = 1
x15,7 + x15,8 + x15,9 + x15,10 + x15,11 + x15,12 + x15,13 + x15,14 + x15,15 = 1
x16,7 + x16,8 + x16,9 + x16,10 + x16,11 + x16,12 + x16,13 + x16,14 + x16,15 = 1
x17,5 + x17,6 + x17,7 + x17,8 + x17,9 + x17,10 + x17,11 + x17,12 + x17,13 + x17,14 = 1
x18,6 + x18,7 + x18,8 + x18,9 + x18,10 + x18,11 + x18,12 + x18,13 + x18,14 = 1
x19,6 + x19,7 + x19,8 + x19,9 + x19,10 + x19,11 + x19,12 + x19,13 + x19,14 = 1
x20,4 + x20,5 + x20,6 + x20,7 + x20,8 + x20,9 + x20,10 + x20,11 + x20,12 + x20,13 + x20,14 = 1
x21,3 + x21,4 + x21,5 + x21,6 + x21,7 + x21,8 + x21,9 + x21,10 + x21,11 + x21,12 = 1
x22,5 + x22,6 + x22,7 + x22,8 + x22,9 + x22,10 + x22,11 + x22,12 + x22,13 = 1
x23,5 + x23,6 + x23,7 + x23,8 + x23,9 + x23,10 + x23,11 + x23,12 + x23,13 = 1
x24,2 + x24,3 + x24,4 + x24,5 + x24,6 + x24,7 + x24,8 + x24,9 + x24,10 + x24,11 + x24,12 = 1
x25,2 + x25,3 + x25,4 + x25,5 + x25,6 + x25,7 + x25,8 + x25,9 + x25,10 + x25,11 = 1
x26,3 + x26,4 + x26,5 + x26,6 + x26,7 + x26,8 + x26,9 + x26,10 + x26,11 = 1
x27,3 + x27,4 + x27,5 + x27,6 + x27,7 + x27,8 + x27,9 + x27,10 + x27,11 = 1
x28,1 + x28,2 + x28,3 + x28,4 + x28,5 + x28,6 + x28,7 + x28,8 + x28,9 + x28,10 + x28,11 = 1
x29,1 + x29,2 + x29,3 + x29,4 + x29,5 + x29,6 + x29,7 + x29,8 + x29,9 + x29,10 = 1
x30,2 + x30,3 + x30,4 + x30,5 + x30,6 + x30,7 + x30,8 + x30,9 + x30,10 = 1
x31,2 + x31,3 + x31,4 + x31,5 + x31,6 + x31,7 + x31,8 + x31,9 + x31,10 = 1
x32,1 + x32,2 + x32,3 + x32,4 + x32,5 + x32,6 + x32,7 + x32,8 + x32,9 = 1
x33,1 + x33,2 + x33,3 + x33,4 + x33,5 + x33,6 + x33,7 + x33,8 + x33,9 = 1
x13,1 + x28,1 + x29,1 + x32,1 + x33,1 - M2 <= 0
x10,2 + x13,2 + x25,2 + x28,2 + x29,2 + x30,2 + x31,2 + x32,2 + x33,2 - M2 <= 0
x10,3 + x13,3 + x25,3 + x28,3 + x29,3 + x30,3 + x31,3 + x32,3 + x33,3 - M2 <= 0
x21,3 + x21,2 + x24,3 + x24,2 + x26,3 + x26,2 + x27,3 + x27,2 - M1 <= 0
x10,4 + x13,4 + x20,4 + x25,4 + x28,4 + x29,4 + x30,4 + x31,4 + x32,4 + x33,4 - M2 <= 0
x21,4 + x21,3 + x24,4 + x24,3 + x26,4 + x26,3 + x27,4 + x27,3 - M1 <= 0
x10,5 + x13,5 + x17,5 + x20,5 + x22,5 + x23,5 + x25,5 + x28,5 + x29,5 + x30,5 + x31,5 + x32,5 + x33,5 - M2 <= 0
x21,5 + x21,4 + x24,5 + x24,4 + x26,5 + x26,4 + x27,5 + x27,4 - M1 <= 0
x10,6 + x13,6 + x17,6 + x18,6 + x19,6 + x20,6 + x22,6 + x23,6 + x25,6 + x28,6 + x29,6 + x30,6 + x31,6 + x32,6 + x33,6 - M2 <= 0
x21,6 + x21,5 + x24,6 + x24,5 + x26,6 + x26,5 + x27,6 + x27,5 - M1 <= 0
x10,7 + x13,7 + x15,7 + x16,7 + x17,7 + x18,7 + x19,7 + x20,7 + x22,7 + x23,7 + x25,7 + x28,7 + x29,7 + x30,7 + x31,7 + x32,7 + x33,7 - M2 <= 0
x21,7 + x21,6 + x24,7 + x24,6 + x26,7 + x26,6 + x27,7 + x27,6 - M1 <= 0
x10,8 + x13,8 + x15,8 + x16,8 + x17,8 + x18,8 + x19,8 + x20,8 + x22,8 + x23,8 + x25,8 + x28,8 + x29,8 + x30,8 + x31,8 + x32,8 + x33,8 - M2 <= 0
x12,8 + x12,7 + x14,8 + x14,7 + x21,8 + x21,7 + x24,8 + x24,7 + x26,8 + x26,7 + x27,8 + x27,7 - M1 <= 0
x10,9 + x13,9 + x15,9 + x16,9 + x17,9 + x18,9 + x19,9 + x20,9 + x22,9 + x23,9 + x25,9 + x28,9 + x29,9 + x30,9 + x31,9 + x32,9 + x33,9 - M2 <= 0
x12,9 + x12,8 + x14,9 + x14,8 + x21,9 + x21,8 + x24,9 + x24,8 + x26,9 + x26,8 + x27,9 + x27,8 - M1 <= 0
x9,10 + x10,10 + x11,10 + x13,10 + x15,10 + x16,10 + x17,10 + x18,10 + x19,10 + x20,10 + x22,10 + x23,10 + x25,10 + x28,10 + x29,10 + x30,10 + x31,10 - M2 <= 0
x12,10 + x12,9 + x14,10 + x14,9 + x21,10 + x21,9 + x24,10 + x24,9 + x26,10 + x26,9 + x27,10 + x27,9 - M1 <= 0
x7,11 + x8,11 + x9,11 + x10,11 + x11,11 + x13,11 + x15,11 + x16,11 + x17,11 + x18,11 + x19,11 + x20,11 + x22,11 + x23,11 + x25,11 + x28,11 - M2 <= 0
x12,11 + x12,10 + x14,11 + x14,10 + x21,11 + x21,10 + x24,11 + x24,10 + x26,11 + x26,10 + x27,11 + x27,10 - M1 <= 0
x7,12 + x8,12 + x9,12 + x10,12 + x11,12 + x13,12 + x15,12 + x16,12 + x17,12 + x18,12 + x19,12 + x20,12 + x22,12 + x23,12 - M2 <= 0
x5,12 + x5,11 + x6,12 + x6,11 + x12,12 + x12,11 + x14,12 + x14,11 + x21,12 + x21,11 + x24,12 + x24,11 + x26,12 + x26,11 + x27,12 + x27,11 - M1 <= 0
x7,13 + x8,13 + x9,13 + x10,13 + x11,13 + x13,13 + x15,13 + x16,13 + x17,13 + x18,13 + x19,13 + x20,13 + x22,13 + x23,13 - M2 <= 0
x5,13 + x5,12 + x6,13 + x6,12 + x12,13 + x12,12 + x14,13 + x14,12 + x21,13 + x21,12 + x24,13 + x24,12 - M1 <= 0
x4,14 + x7,14 + x8,14 + x9,14 + x10,14 + x11,14 + x13,14 + x15,14 + x16,14 + x17,14 + x18,14 + x19,14 + x20,14 - M2 <= 0
x5,14 + x5,13 + x6,14 + x6,13 + x12,14 + x12,13 + x14,14 + x14,13 - M1 <= 0
x1,15 + x3,15 + x4,15 + x7,15 + x8,15 + x9,15 + x10,15 + x11,15 + x13,15 + x15,15 + x16,15 - M2 <= 0
x5,15 + x5,14 + x6,15 + x6,14 + x12,15 + x12,14 + x14,15 + x14,14 - M1 <= 0
x1,16 + x2,16 + x3,16 + x4,16 + x7,16 + x8,16 + x9,16 + x10,16 + x11,16 + x13,16 - M2 <= 0
x5,16 + x5,15 + x6,16 + x6,15 + x12,16 + x12,15 + x14,16 + x14,15 - M1 <= 0
x0,17 + x1,17 + x2,17 + x3,17 + x4,17 + x7,17 + x8,17 + x9,17 + x10,17 + x11,17 + x13,17 - M2 <= 0
x5,17 + x5,16 + x6,17 + x6,16 + x12,17 + x12,16 + x14,17 + x14,16 - M1 <= 0
x0,18 + x1,18 + x2,18 + x3,18 + x4,18 + x7,18 + x8,18 + x9,18 + x10,18 + x11,18 - M2 <= 0
x5,18 + x5,17 + x6,18 + x6,17 - M1 <= 0
x0,19 + x1,19 + x2,19 + x3,19 + x4,19 + x7,19 + x8,19 - M2 <= 0
x5,19 + x5,18 + x6,19 + x6,18 - M1 <= 0
x0,20 + x1,20 + x2,20 + x3,20 + x4,20 - M2 <= 0
x5,20 + x5,19 + x6,20 + x6,19 - M1 <= 0
x0,21 + x1,21 + x2,21 + x3,21 + x4,21 - M2 <= 0
x5,21 + x5,20 + x6,21 + x6,20 - M1 <= 0
x0,22 + x1,22 + x2,22 + x3,22 + x4,22 - M2 <= 0
x0,23 + x1,23 + x2,23 + x3,23 - M2 <= 0
x0,24 + x1,24 + x2,24 - M2 <= 0
x0,25 + x1,25 - M2 <= 0
16 x2,16 + 17 x2,17 + 18 x2,18 + 19 x2,19 + 20 x2,20 + 21 x2,21 + 22 x2,22 + 23 x2,23 + 24 x2,24 - 17 x0,17 - 18 x0,18 - 19 x0,19 - 20 x0,20 - 21 x0,21 - 22 x0,22 - 23 x0,23 - 24 x0,24 - 25 x0,25 <= -1
15 x3,15 + 16 x3,16 + 17 x3,17 + 18 x3,18 + 19 x3,19 + 20 x3,20 + 21 x3,21 + 22 x3,22 + 23 x3,23 - 16 x2,16 - 17 x2,17 - 18 x2,18 - 19 x2,19 - 20 x2,20 - 21 x2,21 - 22 x2,22 - 23 x2,23 - 24 x2,24 <= -1
14 x4,14 + 15 x4,15 + 16 x4,16 + 17 x4,17 + 18 x4,18 + 19 x4,19 + 20 x4,20 + 21 x4,21 + 22 x4,22 - 15 x1,15 - 16 x1,16 - 17 x1,17 - 18 x1,18 - 19 x1,19 - 20 x1,20 - 21 x1,21 - 22 x1,22 - 23 x1,23 - 24 x1,24 - 25 x1,25 <= -1
14 x4,14 + 15 x4,15 + 16 x4,16 + 17 x4,17 + 18 x4,18 + 19 x4,19 + 20 x4,20 + 21 x4,21 + 22 x4,22 - 15 x3,15 - 16 x3,16 - 17 x3,17 - 18 x3,18 - 19 x3,19 - 20 x3,20 - 21 x3,21 - 22 x3,22 - 23 x3,23 <= -1
12 x5,12 + 13 x5,13 + 14 x5,14 + 15 x5,15 + 16 x5,16 + 17 x5,17 + 18 x5,18 + 19 x5,19 + 20 x5,20 - 14 x4,14 - 15 x4,15 - 16 x4,16 - 17 x4,17 - 18 x4,18 - 19 x4,19 - 20 x4,20 - 21 x4,21 - 22 x4,22 <= -2
12 x6,12 + 13 x6,13 + 14 x6,14 + 15 x6,15 + 16 x6,16 + 17 x6,17 + 18 x6,18 + 19 x6,19 + 20 x6,20 - 14 x4,14 - 15 x4,15 - 16 x4,16 - 17 x4,17 - 18 x4,18 - 19 x4,19 - 20 x4,20 - 21 x4,21 - 22 x4,22 <= -2
11 x7,11 + 12 x7,12 + 13 x7,13 + 14 x7,14 + 15 x7,15 + 16 x7,16 + 17 x7,17 + 18 x7,18 + 19 x7,19 - 16 x2,16 - 17 x2,17 - 18 x2,18 - 19 x2,19 - 20 x2,20 - 21 x2,21 - 22 x2,22 - 23 x2,23 - 24 x2,24 <= -1
11 x7,11 + 12 x7,12 + 13 x7,13 + 14 x7,14 + 15 x7,15 + 16 x7,16 + 17 x7,17 + 18 x7,18 + 19 x7,19 - 12 x5,12 - 13 x5,13 - 14 x5,14 - 15 x5,15 - 16 x5,16 - 17 x5,17 - 18 x5,18 - 19 x5,19 - 20 x5,20 <= -1
11 x8,11 + 12 x8,12 + 13 x8,13 + 14 x8,14 + 15 x8,15 + 16 x8,16 + 17 x8,17 + 18 x8,18 + 19 x8,19 - 15 x1,15 - 16 x1,16 - 17 x1,17 - 18 x1,18 - 19 x1,19 - 20 x1,20 - 21 x1,21 - 22 x1,22 - 23 x1,23 - 24 x1,24 - 25 x1,25 <= -1
11 x8,11 + 12 x8,12 + 13 x8,13 + 14 x8,14 + 15 x8,15 + 16 x8,16 + 17 x8,17 + 18 x8,18 + 19 x8,19 - 12 x6,12 - 13 x6,13 - 14 x6,14 - 15 x6,15 - 16 x6,16 - 17 x6,17 - 18 x6,18 - 19 x6,19 - 20 x6,20 <= -1
10 x9,10 + 11 x9,11 + 12 x9,12 + 13 x9,13 + 14 x9,14 + 15 x9,15 + 16 x9,16 + 17 x9,17 + 18 x9,18 - 16 x2,16 - 17 x2,17 - 18 x2,18 - 19 x2,19 - 20 x2,20 - 21 x2,21 - 22 x2,22 - 23 x2,23 - 24 x2,24 <= -1
10 x9,10 + 11 x9,11 + 12 x9,12 + 13 x9,13 + 14 x9,14 + 15 x9,15 + 16 x9,16 + 17 x9,17 + 18 x9,18 - 11 x7,11 - 12 x7,12 - 13 x7,13 - 14 x7,14 - 15 x7,15 - 16 x7,16 - 17 x7,17 - 18 x7,18 - 19 x7,19 <= -1
2 x10,2 + 3 x10,3 + 4 x10,4 + 5 x10,5 + 6 x10,6 + 7 x10,7 + 8 x10,8 + 9 x10,9 + 10 x10,10 + 11 x10,11 + 12 x10,12 + 13 x10,13 + 14 x10,14 + 15 x10,15 + 16 x10,16 + 17 x10,17 + 18 x10,18 - 14 x4,14 - 15 x4,15 - 16 x4,16 - 17 x4,17 - 18 x4,18 - 19 x4,19 - 20 x4,20 - 21 x4,21 - 22 x4,22 <= -1
2 x10,2 + 3 x10,3 + 4 x10,4 + 5 x10,5 + 6 x10,6 + 7 x10,7 + 8 x10,8 + 9 x10,9 + 10 x10,10 + 11 x10,11 + 12 x10,12 + 13 x10,13 + 14 x10,14 + 15 x10,15 + 16 x10,16 + 17 x10,17 + 18 x10,18 - 11 x7,11 - 12 x7,12 - 13 x7,13 - 14 x7,14 - 15 x7,15 - 16 x7,16 - 17 x7,17 - 18 x7,18 - 19 x7,19 <= -1
10 x11,10 + 11 x11,11 + 12 x11,12 + 13 x11,13 + 14 x11,14 + 15 x11,15 + 16 x11,16 + 17 x11,17 + 18 x11,18 - 15 x1,15 - 16 x1,16 - 17 x1,17 - 18 x1,18 - 19 x1,19 - 20 x1,20 - 21 x1,21 - 22 x1,22 - 23 x1,23 - 24 x1,24 - 25 x1,25 <= -1
10 x11,10 + 11 x11,11 + 12 x11,12 + 13 x11,13 + 14 x11,14 + 15 x11,15 + 16 x11,16 + 17 x11,17 + 18 x11,18 - 11 x8,11 - 12 x8,12 - 13 x8,13 - 14 x8,14 - 15 x8,15 - 16 x8,16 - 17 x8,17 - 18 x8,18 - 19 x8,19 <= -1
8 x12,8 + 9 x12,9 + 10 x12,10 + 11 x12,11 + 12 x12,12 + 13 x12,13 + 14 x12,14 + 15 x12,15 + 16 x12,16 - 10 x9,10 - 11 x9,11 - 12 x9,12 - 13 x9,13 - 14 x9,14 - 15 x9,15 - 16 x9,16 - 17 x9,17 - 18 x9,18 <= -2
1 x13,1 + 2 x13,2 + 3 x13,3 + 4 x13,4 + 5 x13,5 + 6 x13,6 + 7 x13,7 + 8 x13,8 + 9 x13,9 + 10 x13,10 + 11 x13,11 + 12 x13,12 + 13 x13,13 + 14 x13,14 + 15 x13,15 + 16 x13,16 + 17 x13,17 - 11 x8,11 - 12 x8,12 - 13 x8,13 - 14 x8,14 - 15 x8,15 - 16 x8,16 - 17 x8,17 - 18 x8,18 - 19 x8,19 <= -1
1 x13,1 + 2 x13,2 + 3 x13,3 + 4 x13,4 + 5 x13,5 + 6 x13,6 + 7 x13,7 + 8 x13,8 + 9 x13,9 + 10 x13,10 + 11 x13,11 + 12 x13,12 + 13 x13,13 + 14 x13,14 + 15 x13,15 + 16 x13,16 + 17 x13,17 - 2 x10,2 - 3 x10,3 - 4 x10,4 - 5 x10,5 - 6 x10,6 - 7 x10,7 - 8 x10,8 - 9 x10,9 - 10 x10,10 - 11 x10,11 - 12 x10,12 - 13 x10,13 - 14 x10,14 - 15 x10,15 - 16 x10,16 - 17 x10,17 - 18 x10,18 <= -1
8 x14,8 + 9 x14,9 + 10 x14,10 + 11 x14,11 + 12 x14,12 + 13 x14,13 + 14 x14,14 + 15 x14,15 + 16 x14,16 - 10 x11,10 - 11 x11,11 - 12 x11,12 - 13 x11,13 - 14 x11,14 - 15 x11,15 - 16 x11,16 - 17 x11,17 - 18 x11,18 <= -2
7 x15,7 + 8 x15,8 + 9 x15,9 + 10 x15,10 + 11 x15,11 + 12 x15,12 + 13 x15,13 + 14 x15,14 + 15 x15,15 - 17 x0,17 - 18 x0,18 - 19 x0,19 - 20 x0,20 - 21 x0,21 - 22 x0,22 - 23 x0,23 - 24 x0,24 - 25 x0,25 <= -1
7 x15,7 + 8 x15,8 + 9 x15,9 + 10 x15,10 + 11 x15,11 + 12 x15,12 + 13 x15,13 + 14 x15,14 + 15 x15,15 - 8 x12,8 - 9 x12,9 - 10 x12,10 - 11 x12,11 - 12 x12,12 - 13 x12,13 - 14 x12,14 - 15 x12,15 - 16 x12,16 <= -1
7 x16,7 + 8 x16,8 + 9 x16,9 + 10 x16,10 + 11 x16,11 + 12 x16,12 + 13 x16,13 + 14 x16,14 + 15 x16,15 - 8 x14,8 - 9 x14,9 - 10 x14,10 - 11 x14,11 - 12 x14,12 - 13 x14,13 - 14 x14,14 - 15 x14,15 - 16 x14,16 <= -1
5 x17,5 + 6 x17,6 + 7 x17,7 + 8 x17,8 + 9 x17,9 + 10 x17,10 + 11 x17,11 + 12 x17,12 + 13 x17,13 + 14 x17,14 - 17 x0,17 - 18 x0,18 - 19 x0,19 - 20 x0,20 - 21 x0,21 - 22 x0,22 - 23 x0,23 - 24 x0,24 - 25 x0,25 <= -1
5 x17,5 + 6 x17,6 + 7 x17,7 + 8 x17,8 + 9 x17,9 + 10 x17,10 + 11 x17,11 + 12 x17,12 + 13 x17,13 + 14 x17,14 - 7 x15,7 - 8 x15,8 - 9 x15,9 - 10 x15,10 - 11 x15,11 - 12 x15,12 - 13 x15,13 - 14 x15,14 - 15 x15,15 <= -1
6 x18,6 + 7 x18,7 + 8 x18,8 + 9 x18,9 + 10 x18,10 + 11 x18,11 + 12 x18,12 + 13 x18,13 + 14 x18,14 - 11 x7,11 - 12 x7,12 - 13 x7,13 - 14 x7,14 - 15 x7,15 - 16 x7,16 - 17 x7,17 - 18 x7,18 - 19 x7,19 <= -1
6 x18,6 + 7 x18,7 + 8 x18,8 + 9 x18,9 + 10 x18,10 + 11 x18,11 + 12 x18,12 + 13 x18,13 + 14 x18,14 - 7 x15,7 - 8 x15,8 - 9 x15,9 - 10 x15,10 - 11 x15,11 - 12 x15,12 - 13 x15,13 - 14 x15,14 - 15 x15,15 <= -1
6 x19,6 + 7 x19,7 + 8 x19,8 + 9 x19,9 + 10 x19,10 + 11 x19,11 + 12 x19,12 + 13 x19,13 + 14 x19,14 - 11 x8,11 - 12 x8,12 - 13 x8,13 - 14 x8,14 - 15 x8,15 - 16 x8,16 - 17 x8,17 - 18 x8,18 - 19 x8,19 <= -1
6 x19,6 + 7 x19,7 + 8 x19,8 + 9 x19,9 + 10 x19,10 + 11 x19,11 + 12 x19,12 + 13 x19,13 + 14 x19,14 - 7 x16,7 - 8 x16,8 - 9 x16,9 - 10 x16,10 - 11 x16,11 - 12 x16,12 - 13 x16,13 - 14 x16,14 - 15 x16,15 <= -1
4 x20,4 + 5 x20,5 + 6 x20,6 + 7 x20,7 + 8 x20,8 + 9 x20,9 + 10 x20,10 + 11 x20,11 + 12 x20,12 + 13 x20,13 + 14 x20,14 - 7 x16,7 - 8 x16,8 - 9 x16,9 - 10 x16,10 - 11 x16,11 - 12 x16,12 - 13 x16,13 - 14 x16,14 - 15 x16,15 <= -1
3 x21,3 + 4 x21,4 + 5 x21,5 + 6 x21,6 + 7 x21,7 + 8 x21,8 + 9 x21,9 + 10 x21,10 + 11 x21,11 + 12 x21,12 - 5 x17,5 - 6 x17,6 - 7 x17,7 - 8 x17,8 - 9 x17,9 - 10 x17,10 - 11 x17,11 - 12 x17,12 - 13 x17,13 - 14 x17,14 <= -2
5 x22,5 + 6 x22,6 + 7 x22,7 + 8 x22,8 + 9 x22,9 + 10 x22,10 + 11 x22,11 + 12 x22,12 + 13 x22,13 - 6 x18,6 - 7 x18,7 - 8 x18,8 - 9 x18,9 - 10 x18,10 - 11 x18,11 - 12 x18,12 - 13 x18,13 - 14 x18,14 <= -1
5 x23,5 + 6 x23,6 + 7 x23,7 + 8 x23,8 + 9 x23,9 + 10 x23,10 + 11 x23,11 + 12 x23,12 + 13 x23,13 - 6 x19,6 - 7 x19,7 - 8 x19,8 - 9 x19,9 - 10 x19,10 - 11 x19,11 - 12 x19,12 - 13 x19,13 - 14 x19,14 <= -1
2 x24,2 + 3 x24,3 + 4 x24,4 + 5 x24,5 + 6 x24,6 + 7 x24,7 + 8 x24,8 + 9 x24,9 + 10 x24,10 + 11 x24,11 + 12 x24,12 - 4 x20,4 - 5 x20,5 - 6 x20,6 - 7 x20,7 - 8 x20,8 - 9 x20,9 - 10 x20,10 - 11 x20,11 - 12 x20,12 - 13 x20,13 - 14 x20,14 <= -2
2 x25,2 + 3 x25,3 + 4 x25,4 + 5 x25,5 + 6 x25,6 + 7 x25,7 + 8 x25,8 + 9 x25,9 + 10 x25,10 + 11 x25,11 - 3 x21,3 - 4 x21,4 - 5 x21,5 - 6 x21,6 - 7 x21,7 - 8 x21,8 - 9 x21,9 - 10 x21,10 - 11 x21,11 - 12 x21,12 <= -1
3 x26,3 + 4 x26,4 + 5 x26,5 + 6 x26,6 + 7 x26,7 + 8 x26,8 + 9 x26,9 + 10 x26,10 + 11 x26,11 - 5 x22,5 - 6 x22,6 - 7 x22,7 - 8 x22,8 - 9 x22,9 - 10 x22,10 - 11 x22,11 - 12 x22,12 - 13 x22,13 <= -2
3 x27,3 + 4 x27,4 + 5 x27,5 + 6 x27,6 + 7 x27,7 + 8 x27,8 + 9 x27,9 + 10 x27,10 + 11 x27,11 - 5 x23,5 - 6 x23,6 - 7 x23,7 - 8 x23,8 - 9 x23,9 - 10 x23,10 - 11 x23,11 - 12 x23,12 - 13 x23,13 <= -2
1 x28,1 + 2 x28,2 + 3 x28,3 + 4 x28,4 + 5 x28,5 + 6 x28,6 + 7 x28,7 + 8 x28,8 + 9 x28,9 + 10 x28,10 + 11 x28,11 - 7 x16,7 - 8 x16,8 - 9 x16,9 - 10 x16,10 - 11 x16,11 - 12 x16,12 - 13 x16,13 - 14 x16,14 - 15 x16,15 <= -1
1 x28,1 + 2 x28,2 + 3 x28,3 + 4 x28,4 + 5 x28,5 + 6 x28,6 + 7 x28,7 + 8 x28,8 + 9 x28,9 + 10 x28,10 + 11 x28,11 - 2 x24,2 - 3 x24,3 - 4 x24,4 - 5 x24,5 - 6 x24,6 - 7 x24,7 - 8 x24,8 - 9 x24,9 - 10 x24,10 - 11 x24,11 - 12 x24,12 <= -1
1 x29,1 + 2 x29,2 + 3 x29,3 + 4 x29,4 + 5 x29,5 + 6 x29,6 + 7 x29,7 + 8 x29,8 + 9 x29,9 + 10 x29,10 - 7 x15,7 - 8 x15,8 - 9 x15,9 - 10 x15,10 - 11 x15,11 - 12 x15,12 - 13 x15,13 - 14 x15,14 - 15 x15,15 <= -1
1 x29,1 + 2 x29,2 + 3 x29,3 + 4 x29,4 + 5 x29,5 + 6 x29,6 + 7 x29,7 + 8 x29,8 + 9 x29,9 + 10 x29,10 - 2 x25,2 - 3 x25,3 - 4 x25,4 - 5 x25,5 - 6 x25,6 - 7 x25,7 - 8 x25,8 - 9 x25,9 - 10 x25,10 - 11 x25,11 <= -1
2 x30,2 + 3 x30,3 + 4 x30,4 + 5 x30,5 + 6 x30,6 + 7 x30,7 + 8 x30,8 + 9 x30,9 + 10 x30,10 - 3 x26,3 - 4 x26,4 - 5 x26,5 - 6 x26,6 - 7 x26,7 - 8 x26,8 - 9 x26,9 - 10 x26,10 - 11 x26,11 <= -1
2 x31,2 + 3 x31,3 + 4 x31,4 + 5 x31,5 + 6 x31,6 + 7 x31,7 + 8 x31,8 + 9 x31,9 + 10 x31,10 - 3 x27,3 - 4 x27,4 - 5 x27,5 - 6 x27,6 - 7 x27,7 - 8 x27,8 - 9 x27,9 - 10 x27,10 - 11 x27,11 <= -1
1 x32,1 + 2 x32,2 + 3 x32,3 + 4 x32,4 + 5 x32,5 + 6 x32,6 + 7 x32,7 + 8 x32,8 + 9 x32,9 - 5 x22,5 - 6 x22,6 - 7 x22,7 - 8 x22,8 - 9 x22,9 - 10 x22,10 - 11 x22,11 - 12 x22,12 - 13 x22,13 <= -1
1 x32,1 + 2 x32,2 + 3 x32,3 + 4 x32,4 + 5 x32,5 + 6 x32,6 + 7 x32,7 + 8 x32,8 + 9 x32,9 - 2 x30,2 - 3 x30,3 - 4 x30,4 - 5 x30,5 - 6 x30,6 - 7 x30,7 - 8 x30,8 - 9 x30,9 - 10 x30,10 <= -1
1 x33,1 + 2 x33,2 + 3 x33,3 + 4 x33,4 + 5 x33,5 + 6 x33,6 + 7 x33,7 + 8 x33,8 + 9 x33,9 - 5 x23,5 - 6 x23,6 - 7 x23,7 - 8 x23,8 - 9 x23,9 - 10 x23,10 - 11 x23,11 - 12 x23,12 - 13 x23,13 <= -1
1 x33,1 + 2 x33,2 + 3 x33,3 + 4 x33,4 + 5 x33,5 + 6 x33,6 + 7 x33,7 + 8 x33,8 + 9 x33,9 - 2 x31,2 - 3 x31,3 - 4 x31,4 - 5 x31,5 - 6 x31,6 - 7 x31,7 - 8 x31,8 - 9 x31,9 - 10 x31,10 <= -1
Bounds
0 <= x0,17 <= 1
0 <= x0,18 <= 1
0 <= x0,19 <= 1
0 <= x0,20 <= 1
0 <= x0,21 <= 1
0 <= x0,22 <= 1
0 <= x0,23 <= 1
0 <= x0,24 <= 1
0 <= x0,25 <= 1
0 <= x1,15 <= 1
0 <= x1,16 <= 1
0 <= x1,17 <= 1
0 <= x1,18 <= 1
0 <= x1,19 <= 1
0 <= x1,20 <= 1
0 <= x1,21 <= 1
0 <= x1,22 <= 1
0 <= x1,23 <= 1
0 <= x1,24 <= 1
0 <= x1,25 <= 1
0 <= x2,16 <= 1
0 <= x2,17 <= 1
0 <= x2,18 <= 1
0 <= x2,19 <= 1
0 <= x2,20 <= 1
0 <= x2,21 <= 1
0 <= x2,22 <= 1
0 <= x2,23 <= 1
0 <= x2,24 <= 1
0 <= x3,15 <= 1
0 <= x3,16 <= 1
0 <= x3,17 <= 1
0 <= x3,18 <= 1
0 <= x3,19 <= 1
0 <= x3,20 <= 1
0 <= x3,21 <= 1
0 <= x3,22 <= 1
0 <= x3,23 <= 1
0 <= x4,14 <= 1
0 <= x4,15 <= 1
0 <= x4,16 <= 1
0 <= x4,17 <= 1
0 <= x4,18 <= 1
0 <= x4,19 <= 1
0 <= x4,20 <= 1
0 <= x4,21 <= 1
0 <= x4,22 <= 1
0 <= x5,12 <= 1
0 <= x5,13 <= 1
0 <= x5,14 <= 1
0 <= x5,15 <= 1
0 <= x5,16 <= 1
0 <= x5,17 <= 1
0 <= x5,18 <= 1
0 <= x5,19 <= 1
0 <= x5,20 <= 1
0 <= x6,12 <= 1
0 <= x6,13 <= 1
0 <= x6,14 <= 1
0 <= x6,15 <= 1
0 <= x6,16 <= 1
0 <= x6,17 <= 1
0 <= x6,18 <= 1
0 <= x6,19 <= 1
0 <= x6,20 <= 1
0 <= x7,11 <= 1
0 <= x7,12 <= 1
0 <= x7,13 <= 1
0 <= x7,14 <= 1
0 <= x7,15 <= 1
0 <= x7,16 <= 1
0 <= x7,17 <= 1
0 <= x7,18 <= 1
0 <= x7,19 <= 1
0 <= x8,11 <= 1
0 <= x8,12 <= 1
0 <= x8,13 <= 1
0 <= x8,14 <= 1
0 <= x8,15 <= 1
0 <= x8,16 <= 1
0 <= x8,17 <= 1
0 <= x8,18 <= 1
0 <= x8,19 <= 1
0 <= x9,10 <= 1
0 <= x9,11 <= 1
0 <= x9,12 <= 1
0 <= x9,13 <= 1
0 <= x9,14 <= 1
0 <= x9,15 <= 1
0 <= x9,16 <= 1
0 <= x9,17 <= 1
0 <= x9,18 <= 1
0 <= x10,2 <= 1
0 <= x10,3 <= 1
0 <= x10,4 <= 1
0 <= x10,5 <= 1
0 <= x10,6 <= 1
0 <= x10,7 <= 1
0 <= x10,8 <= 1
0 <= x10,9 <= 1
0 <= x10,10 <= 1
0 <= x10,11 <= 1
0 <= x10,12 <= 1
0 <= x10,13 <= 1
0 <= x10,14 <= 1
0 <= x10,15 <= 1
0 <= x10,16 <= 1
0 <= x10,17 <= 1
0 <= x10,18 <= 1
0 <= x11,10 <= 1
0 <= x11,11 <= 1
0 <= x11,12 <= 1
0 <= x11,13 <= 1
0 <= x11,14 <= 1
0 <= x11,15 <= 1
0 <= x11,16 <= 1
0 <= x11,17 <= 1
0 <= x11,18 <= 1
0 <= x12,8 <= 1
0 <= x12,9 <= 1
0 <= x12,10 <= 1
0 <= x12,11 <= 1
0 <= x12,12 <= 1
0 <= x12,13 <= 1
0 <= x12,14 <= 1
0 <= x12,15 <= 1
0 <= x12,16 <= 1
0 <= x13,1 <= 1
0 <= x13,2 <= 1
0 <= x13,3 <= 1
0 <= x13,4 <= 1
0 <= x13,5 <= 1
0 <= x13,6 <= 1
0 <= x13,7 <= 1
0 <= x13,8 <= 1
0 <= x13,9 <= 1
0 <= x13,10 <= 1
0 <= x13,11 <= 1
0 <= x13,12 <= 1
0 <= x13,13 <= 1
0 <= x13,14 <= 1
0 <= x13,15 <= 1
0 <= x13,16 <= 1
0 <= x13,17 <= 1
0 <= x14,8 <= 1
0 <= x14,9 <= 1
0 <= x14,10 <= 1
0 <= x14,11 <= 1
0 <= x14,12 <= 1
0 <= x14,13 <= 1
0 <= x14,14 <= 1
0 <= x14,15 <= 1
0 <= x14,16 <= 1
0 <= x15,7 <= 1
0 <= x15,8 <= 1
0 <= x15,9 <= 1
0 <= x15,10 <= 1
0 <= x15,11 <= 1
0 <= x15,12 <= 1
0 <= x15,13 <= 1
0 <= x15,14 <= 1
0 <= x15,15 <= 1
0 <= x16,7 <= 1
0 <= x16,8 <= 1
0 <= x16,9 <= 1
0 <= x16,10 <= 1
0 <= x16,11 <= 1
0 <= x16,12 <= 1
0 <= x16,13 <= 1
0 <= x16,14 <= 1
0 <= x16,15 <= 1
0 <= x17,5 <= 1
0 <= x17,6 <= 1
0 <= x17,7 <= 1
0 <= x17,8 <= 1
0 <= x17,9 <= 1
0 <= x17,10 <= 1
0 <= x17,11 <= 1
0 <= x17,12 <= 1
0 <= x17,13 <= 1
0 <= x17,14 <= 1
0 <= x18,6 <= 1
0 <= x18,7 <= 1
0 <= x18,8 <= 1
0 <= x18,9 <= 1
0 <= x18,10 <= 1
0 <= x18,11 <= 1
0 <= x18,12 <= 1
0 <= x18,13 <= 1
0 <= x18,14 <= 1
0 <= x19,6 <= 1
0 <= x19,7 <= 1
0 <= x19,8 <= 1
0 <= x19,9 <= 1
0 <= x19,10 <= 1
0 <= x19,11 <= 1
0 <= x19,12 <= 1
0 <= x19,13 <= 1
0 <= x19,14 <= 1
0 <= x20,4 <= 1
0 <= x20,5 <= 1
0 <= x20,6 <= 1
0 <= x20,7 <= 1
0 <= x20,8 <= 1
0 <= x20,9 <= 1
0 <= x20,10 <= 1
0 <= x20,11 <= 1
0 <= x20,12 <= 1
0 <= x20,13 <= 1
0 <= x20,14 <= 1
0 <= x21,3 <= 1
0 <= x21,4 <= 1
0 <= x21,5 <= 1
0 <= x21,6 <= 1
0 <= x21,7 <= 1
0 <= x21,8 <= 1
0 <= x21,9 <= 1
0 <= x21,10 <= 1
0 <= x21,11 <= 1
0 <= x21,12 <= 1
0 <= x22,5 <= 1
0 <= x22,6 <= 1
0 <= x22,7 <= 1
0 <= x22,8 <= 1
0 <= x22,9 <= 1
0 <= x22,10 <= 1
0 <= x22,11 <= 1
0 <= x22,12 <= 1
0 <= x22,13 <= 1
0 <= x23,5 <= 1
0 <= x23,6 <= 1
0 <= x23,7 <= 1
0 <= x23,8 <= 1
0 <= x23,9 <= 1
0 <= x23,10 <= 1
0 <= x23,11 <= 1
0 <= x23,12 <= 1
0 <= x23,13 <= 1
0 <= x24,2 <= 1
0 <= x24,3 <= 1
0 <= x24,4 <= 1
0 <= x24,5 <= 1
0 <= x24,6 <= 1
0 <= x24,7 <= 1
0 <= x24,8 <= 1
0 <= x24,9 <= 1
0 <= x24,10 <= 1
0 <= x24,11 <= 1
0 <= x24,12 <= 1
0 <= x25,2 <= 1
0 <= x25,3 <= 1
0 <= x25,4 <= 1
0 <= x25,5 <= 1
0 <= x25,6 <= 1
0 <= x25,7 <= 1
0 <= x25,8 <= 1
0 <= x25,9 <= 1
0 <= x25,10 <= 1
0 <= x25,11 <= 1
0 <= x26,3 <= 1
0 <= x26,4 <= 1
0 <= x26,5 <= 1
0 <= x26,6 <= 1
0 <= x26,7 <= 1
0 <= x26,8 <= 1
0 <= x26,9 <= 1
0 <= x26,10 <= 1
0 <= x26,11 <= 1
0 <= x27,3 <= 1
0 <= x27,4 <= 1
0 <= x27,5 <= 1
0 <= x27,6 <= 1
0 <= x27,7 <= 1
0 <= x27,8 <= 1
0 <= x27,9 <= 1
0 <= x27,10 <= 1
0 <= x27,11 <= 1
0 <= x28,1 <= 1
0 <= x28,2 <= 1
0 <= x28,3 <= 1
0 <= x28,4 <= 1
0 <= x28,5 <= 1
0 <= x28,6 <= 1
0 <= x28,7 <= 1
0 <= x28,8 <= 1
0 <= x28,9 <= 1
0 <= x28,10 <= 1
0 <= x28,11 <= 1
0 <= x29,1 <= 1
0 <= x29,2 <= 1
0 <= x29,3 <= 1
0 <= x29,4 <= 1
0 <= x29,5 <= 1
0 <= x29,6 <= 1
0 <= x29,7 <= 1
0 <= x29,8 <= 1
0 <= x29,9 <= 1
0 <= x29,10 <= 1
0 <= x30,2 <= 1
0 <= x30,3 <= 1
0 <= x30,4 <= 1
0 <= x30,5 <= 1
0 <= x30,6 <= 1
0 <= x30,7 <= 1
0 <= x30,8 <= 1
0 <= x30,9 <= 1
0 <= x30,10 <= 1
0 <= x31,2 <= 1
0 <= x31,3 <= 1
0 <= x31,4 <= 1
0 <= x31,5 <= 1
0 <= x31,6 <= 1
0 <= x31,7 <= 1
0 <= x31,8 <= 1
0 <= x31,9 <= 1
0 <= x31,10 <= 1
0 <= x32,1 <= 1
0 <= x32,2 <= 1
0 <= x32,3 <= 1
0 <= x32,4 <= 1
0 <= x32,5 <= 1
0 <= x32,6 <= 1
0 <= x32,7 <= 1
0 <= x32,8 <= 1
0 <= x32,9 <= 1
0 <= x33,1 <= 1
0 <= x33,2 <= 1
0 <= x33,3 <= 1
0 <= x33,4 <= 1
0 <= x33,5 <= 1
0 <= x33,6 <= 1
0 <= x33,7 <= 1
0 <= x33,8 <= 1
0 <= x33,9 <= 1
M1 >= 1
M2 >= 1
Generals
x0,17
x0,18
x0,19
x0,20
x0,21
x0,22
x0,23
x0,24
x0,25
x1,15
x1,16
x1,17
x1,18
x1,19
x1,20
x1,21
x1,22
x1,23
x1,24
x1,25
x2,16
x2,17
x2,18
x2,19
x2,20
x2,21
x2,22
x2,23
x2,24
x3,15
x3,16
x3,17
x3,18
x3,19
x3,20
x3,21
x3,22
x3,23
x4,14
x4,15
x4,16
x4,17
x4,18
x4,19
x4,20
x4,21
x4,22
x5,12
x5,13
x5,14
x5,15
x5,16
x5,17
x5,18
x5,19
x5,20
x6,12
x6,13
x6,14
x6,15
x6,16
x6,17
x6,18
x6,19
x6,20
x7,11
x7,12
x7,13
x7,14
x7,15
x7,16
x7,17
x7,18
x7,19
x8,11
x8,12
x8,13
x8,14
x8,15
x8,16
x8,17
x8,18
x8,19
x9,10
x9,11
x9,12
x9,13
x9,14
x9,15
x9,16
x9,17
x9,18
x10,2
x10,3
x10,4
x10,5
x10,6
x10,7
x10,8
x10,9
x10,10
x10,11
x10,12
x10,13
x10,14
x10,15
x10,16
x10,17
x10,18
x11,10
x11,11
x11,12
x11,13
x11,14
x11,15
x11,16
x11,17
x11,18
x12,8
x12,9
x12,10
x12,11
x12,12
x12,13
x12,14
x12,15
x12,16
x13,1
x13,2
x13,3
x13,4
x13,5
x13,6
x13,7
x13,8
x13,9
x13,10
x13,11
x13,12
x13,13
x13,14
x13,15
x13,16
x13,17
x14,8
x14,9
x14,10
x14,11
x14,12
x14,13
x14,14
x14,15
x14,16
x15,7
x15,8
x15,9
x15,10
x15,11
x15,12
x15,13
x15,14
x15,15
x16,7
x16,8
x16,9
x16,10
x16,11
x16,12
x16,13
x16,14
x16,15
x17,5
x17,6
x17,7
x17,8
x17,9
x17,10
x17,11
x17,12
x17,13
x17,14
x18,6
x18,7
x18,8
x18,9
x18,10
x18,11
x18,12
x18,13
x18,14
x19,6
x19,7
x19,8
x19,9
x19,10
x19,11
x19,12
x19,13
x19,14
x20,4
x20,5
x20,6
x20,7
x20,8
x20,9
x20,10
x20,11
x20,12
x20,13
x20,14
x21,3
x21,4
x21,5
x21,6
x21,7
x21,8
x21,9
x21,10
x21,11
x21,12
x22,5
x22,6
x22,7
x22,8
x22,9
x22,10
x22,11
x22,12
x22,13
x23,5
x23,6
x23,7
x23,8
x23,9
x23,10
x23,11
x23,12
x23,13
x24,2
x24,3
x24,4
x24,5
x24,6
x24,7
x24,8
x24,9
x24,10
x24,11
x24,12
x25,2
x25,3
x25,4
x25,5
x25,6
x25,7
x25,8
x25,9
x25,10
x25,11
x26,3
x26,4
x26,5
x26,6
x26,7
x26,8
x26,9
x26,10
x26,11
x27,3
x27,4
x27,5
x27,6
x27,7
x27,8
x27,9
x27,10
x27,11
x28,1
x28,2
x28,3
x28,4
x28,5
x28,6
x28,7
x28,8
x28,9
x28,10
x28,11
x29,1
x29,2
x29,3
x29,4
x29,5
x29,6
x29,7
x29,8
x29,9
x29,10
x30,2
x30,3
x30,4
x30,5
x30,6
x30,7
x30,8
x30,9
x30,10
x31,2
x31,3
x31,4
x31,5
x31,6
x31,7
x31,8
x31,9
x31,10
x32,1
x32,2
x32,3
x32,4
x32,5
x32,6
x32,7
x32,8
x32,9
x33,1
x33,2
x33,3
x33,4
x33,5
x33,6
x33,7
x33,8
x33,9
M1
M2
End
